50
237 104 397 155 67 402 918 801 766 222 537 277 173 107 215 928 829 807 801 194 310 627 732 855 881 87 606 672 506 178 474 90 935 866 548 301 909 573 883 849 509 414 599 432 162 306 813 44 47 627 
336 204 497 254 169 500 1018 900 867 321 636 378 272 207 317 1026 927 906 902 295 409 726 830 955 979 188 708 774 607 280 572 189 1037 967 648 403 1010 675 982 947 609 512 698 534 261 404 911 142 148 726 
12263
